(set-logic ALL)
(declare-fun var0 () String)
(assert (str.in_re var0 (re.++ (re.* (re.+ (str.to_re "0"))) (re.++ (re.union (re.+ (str.to_re "111")) (re.+ (str.to_re "22"))) (re.++ (re.union (re.union (str.to_re "3") (str.to_re "44")) (re.union (str.to_re "55") (str.to_re "666"))) (re.++ (re.* (re.* (str.to_re "77"))) (re.++ (re.* (re.+ (str.to_re "88"))) (re.++ (re.* (re.union (str.to_re "99") (str.to_re "a"))) (re.++ (re.* (re.* (str.to_re "bbb"))) (re.++ (re.* (re.* (str.to_re "ccc"))) (re.++ (re.* (re.union (str.to_re "ddd") (str.to_re "ee"))) (re.* (re.* (str.to_re "ff"))))))))))))))
(assert (<= 276 (str.len var0)))
(check-sat)